c Reduced graph for GEOM60a_4 generated by Cyril Grelier
p edge 49 274
v 1 10
v 2 10
v 3 10
v 4 10
v 5 10
v 6 10
v 7 10
v 8 9
v 9 9
v 10 9
v 11 9
v 12 9
v 13 9
v 14 9
v 15 9
v 16 8
v 17 8
v 18 8
v 19 8
v 20 8
v 21 8
v 22 8
v 23 8
v 24 8
v 25 7
v 26 7
v 27 6
v 28 6
v 29 6
v 30 6
v 31 6
v 32 5
v 33 5
v 34 5
v 35 5
v 36 5
v 37 4
v 38 4
v 39 4
v 40 4
v 41 4
v 42 3
v 43 3
v 44 2
v 45 2
v 46 2
v 47 2
v 48 1
v 49 1
e 1 2
e 1 7
e 1 8
e 1 9
e 1 10
e 1 22
e 1 23
e 1 24
e 1 25
e 1 27
e 1 32
e 1 37
e 1 38
e 1 42
e 1 44
e 1 48
e 2 8
e 2 9
e 2 10
e 2 23
e 2 25
e 2 27
e 2 31
e 2 32
e 2 37
e 2 38
e 2 39
e 2 42
e 2 44
e 2 48
e 2 49
e 3 19
e 3 20
e 3 28
e 3 29
e 3 30
e 3 33
e 3 34
e 3 35
e 3 41
e 3 43
e 3 45
e 4 8
e 4 9
e 4 12
e 4 21
e 4 27
e 4 32
e 4 37
e 4 42
e 4 44
e 5 13
e 5 16
e 5 17
e 5 18
e 5 36
e 5 40
e 5 41
e 5 47
e 6 11
e 6 14
e 6 16
e 6 17
e 6 18
e 6 26
e 6 40
e 6 46
e 7 10
e 7 22
e 7 27
e 7 44
e 7 48
e 8 9
e 8 12
e 8 21
e 8 25
e 8 27
e 8 32
e 8 37
e 8 38
e 8 42
e 8 44
e 8 48
e 8 49
e 9 10
e 9 12
e 9 21
e 9 22
e 9 27
e 9 32
e 9 37
e 9 42
e 9 44
e 10 22
e 10 27
e 10 32
e 10 37
e 10 38
e 10 42
e 10 44
e 10 48
e 11 14
e 11 15
e 11 16
e 11 17
e 11 18
e 11 26
e 11 31
e 11 39
e 11 40
e 11 46
e 12 21
e 12 22
e 12 27
e 12 32
e 12 37
e 12 42
e 12 44
e 13 28
e 13 36
e 13 40
e 13 41
e 13 43
e 13 45
e 13 47
e 14 16
e 14 17
e 14 18
e 14 26
e 14 40
e 14 46
e 15 16
e 15 26
e 15 31
e 15 39
e 15 46
e 15 49
e 16 17
e 16 18
e 16 25
e 16 26
e 16 31
e 16 39
e 16 40
e 16 46
e 16 49
e 17 18
e 17 26
e 17 31
e 17 36
e 17 39
e 17 40
e 17 46
e 17 47
e 18 26
e 18 36
e 18 39
e 18 40
e 18 46
e 18 47
e 19 20
e 19 24
e 19 28
e 19 29
e 19 30
e 19 33
e 19 34
e 19 35
e 19 45
e 20 28
e 20 29
e 20 30
e 20 33
e 20 34
e 20 35
e 20 43
e 20 45
e 21 27
e 21 32
e 21 37
e 21 42
e 21 44
e 22 27
e 22 44
e 22 48
e 23 24
e 23 25
e 23 32
e 23 38
e 23 48
e 24 38
e 24 48
e 25 26
e 25 31
e 25 32
e 25 37
e 25 38
e 25 39
e 25 42
e 25 44
e 25 48
e 25 49
e 26 31
e 26 39
e 26 46
e 26 49
e 27 32
e 27 37
e 27 42
e 27 44
e 27 48
e 28 29
e 28 30
e 28 33
e 28 34
e 28 35
e 28 41
e 28 43
e 28 45
e 28 47
e 29 30
e 29 33
e 29 34
e 29 35
e 29 41
e 29 43
e 29 45
e 30 33
e 30 34
e 30 35
e 30 41
e 30 43
e 30 45
e 31 39
e 31 46
e 31 49
e 32 37
e 32 38
e 32 42
e 32 44
e 32 48
e 32 49
e 33 34
e 33 35
e 33 43
e 33 45
e 34 35
e 34 43
e 34 45
e 36 40
e 36 41
e 36 47
e 37 38
e 37 42
e 37 44
e 37 48
e 37 49
e 38 39
e 38 42
e 38 44
e 38 48
e 39 46
e 39 49
e 40 46
e 40 47
e 41 43
e 41 45
e 41 47
e 42 44
e 42 48
e 42 49
e 43 45
e 44 48
e 45 47
